 vasp.5.4.1 05Feb16 (build Aug 29 2016 09:33:34) complex

 executed on           IFC91_ompi date 2024.04.19  16:38:00

 INCAR:
 POTCAR:    PAW_PBE Ni 02Aug2007
 POTCAR:    PAW_PBE O 08Apr2002

 POTCAR:    PAW_PBE Ni 02Aug2007
   VRHFIN =Ni:

   TITEL  = PAW_PBE Ni 02Aug2007
   POMASS =   58.690; ZVAL   =   10.000    mass and valenz
   ENMAX  =  269.532; ENMIN  =  202.149 eV

 POTCAR:    PAW_PBE O 08Apr2002
   VRHFIN =O: s2p4

   TITEL  = PAW_PBE O 08Apr2002
   POMASS =   16.000; ZVAL   =    6.000    mass and valenz
   ENMAX  =  400.000; ENMIN  =  300.000 eV

  PAW_PBE Ni 02Aug2007                  :
  PAW_PBE O 08Apr2002                   :

 POSCAR: Ni  O
  positions in cartesian coordinates
 exchange correlation table for  LEXCH =       17
   RHO(1)=    0.500       N(1)  =     2000
   RHO(2)=  100.500       N(2)  =     4000

 ion  position               nearest neighbor table
   1  0.000  0.000  0.000-  33 2.12  35 2.12  36 2.12  39 2.12  44 2.12  49 2.12  12 3.00  20 3.00
                             3 3.00  23 3.00   6 3.00   7 3.00  10 3.00   2 3.00  14 3.00  19 3.00
   2  0.000  0.250  0.250-  34 2.12  35 2.12  36 2.12  40 2.12  43 2.12  50 2.12   3 3.00  27 3.00
                            24 3.00   1 3.00   4 3.00   5 3.00   8 3.00   9 3.00  13 3.00  20 3.00
   3  0.250  0.000  0.250-  33 2.12  34 2.12  35 2.12  37 2.12  42 2.12  51 2.12   2 3.00  26 3.00
                            21 3.00   1 3.00   4 3.00   5 3.00   8 3.00  12 3.00  16 3.00  17 3.00
   4  0.250  0.250  0.000-  33 2.12  34 2.12  36 2.12  38 2.12  41 2.12  52 2.12   9 3.00  17 3.00
                            18 3.00  22 3.00   6 3.00   7 3.00   2 3.00  11 3.00  15 3.00   3 3.00
   5  0.000  0.000  0.500-  35 2.12  37 2.12  39 2.12  40 2.12  48 2.12  53 2.12  16 3.00  24 3.00
                            23 3.00   3 3.00   6 3.00   7 3.00  10 3.00  14 3.00   2 3.00  19 3.00
   6  0.000  0.250  0.750-  36 2.12  38 2.12  39 2.12  40 2.12  47 2.12  54 2.12   7 3.00  31 3.00
                            24 3.00   4 3.00   5 3.00   1 3.00   8 3.00   9 3.00  13 3.00  20 3.00
   7  0.250  0.000  0.750-  33 2.12  37 2.12  38 2.12  39 2.12  46 2.12  55 2.12   6 3.00  30 3.00
                            21 3.00   4 3.00   5 3.00   1 3.00   8 3.00  12 3.00  16 3.00  17 3.00
   8  0.250  0.250  0.500-  34 2.12  37 2.12  38 2.12  40 2.12  45 2.12  56 2.12  13 3.00  21 3.00
                             3 3.00  22 3.00   6 3.00   7 3.00  11 3.00   2 3.00  15 3.00  18 3.00
   9  0.000  0.500  0.000-  36 2.12  41 2.12  43 2.12  44 2.12  47 2.12  57 2.12   4 3.00  28 3.00
                             2 3.00  31 3.00   6 3.00  10 3.00  11 3.00  14 3.00  15 3.00  27 3.00
  10  0.000  0.750  0.250-  35 2.12  42 2.12  43 2.12  44 2.12  48 2.12  58 2.12  11 3.00  19 3.00
                            28 3.00  32 3.00   9 3.00   1 3.00  12 3.00  13 3.00  16 3.00   5 3.00
  11  0.250  0.500  0.250-  34 2.12  41 2.12  42 2.12  43 2.12  45 2.12  59 2.12  10 3.00  18 3.00
                            25 3.00  29 3.00   9 3.00   4 3.00  12 3.00  13 3.00  16 3.00   8 3.00
  12  0.250  0.750  0.000-  33 2.12  41 2.12  42 2.12  44 2.12  46 2.12  60 2.12   1 3.00  25 3.00
                            26 3.00  30 3.00   7 3.00  10 3.00  11 3.00  14 3.00  15 3.00   3 3.00
  13  0.000  0.500  0.500-  40 2.12  43 2.12  45 2.12  47 2.12  48 2.12  61 2.12   8 3.00  32 3.00
                            31 3.00   6 3.00   2 3.00  10 3.00  11 3.00  14 3.00  15 3.00  27 3.00
  14  0.000  0.750  0.750-  39 2.12  44 2.12  46 2.12  47 2.12  48 2.12  62 2.12  15 3.00  23 3.00
                            28 3.00  32 3.00   9 3.00  12 3.00  13 3.00   1 3.00  16 3.00   5 3.00
  15  0.250  0.500  0.750-  38 2.12  41 2.12  45 2.12  46 2.12  47 2.12  63 2.12  14 3.00  22 3.00
                            25 3.00  29 3.00   9 3.00  12 3.00  13 3.00   4 3.00  16 3.00   8 3.00
  16  0.250  0.750  0.500-  37 2.12  42 2.12  45 2.12  46 2.12  48 2.12  64 2.12   5 3.00  29 3.00
                             3 3.00  30 3.00   7 3.00  10 3.00  11 3.00  14 3.00  15 3.00  26 3.00
  17  0.500  0.000  0.000-  33 2.12  49 2.12  51 2.12  52 2.12  55 2.12  60 2.12   4 3.00  28 3.00
                             3 3.00  30 3.00   7 3.00  18 3.00  19 3.00  22 3.00  23 3.00  26 3.00
  18  0.500  0.250  0.250-  34 2.12  50 2.12  51 2.12  52 2.12  56 2.12  59 2.12  11 3.00  19 3.00
                            25 3.00  29 3.00   4 3.00  17 3.00   8 3.00  20 3.00  21 3.00  24 3.00
  19  0.750  0.000  0.250-  35 2.12  49 2.12  50 2.12  51 2.12  53 2.12  58 2.12  10 3.00  18 3.00
                            28 3.00  32 3.00   1 3.00  17 3.00   5 3.00  20 3.00  21 3.00  24 3.00
  20  0.750  0.250  0.000-  36 2.12  49 2.12  50 2.12  52 2.12  54 2.12  57 2.12   1 3.00  25 3.00
                            27 3.00  31 3.00   6 3.00  18 3.00  19 3.00  22 3.00  23 3.00   2 3.00
  21  0.500  0.000  0.500-  37 2.12  51 2.12  53 2.12  55 2.12  56 2.12  64 2.12   8 3.00  32 3.00
                            30 3.00   7 3.00   3 3.00  18 3.00  19 3.00  22 3.00  23 3.00  26 3.00
  22  0.500  0.250  0.750-  38 2.12  52 2.12  54 2.12  55 2.12  56 2.12  63 2.12  15 3.00  23 3.00
                            25 3.00  29 3.00   4 3.00  17 3.00  20 3.00  21 3.00   8 3.00  24 3.00
  23  0.750  0.000  0.750-  39 2.12  49 2.12  53 2.12  54 2.12  55 2.12  62 2.12  14 3.00  22 3.00
                            28 3.00  32 3.00   1 3.00  17 3.00  20 3.00  21 3.00   5 3.00  24 3.00
  24  0.750  0.250  0.500-  40 2.12  50 2.12  53 2.12  54 2.12  56 2.12  61 2.12   5 3.00  29 3.00
                             2 3.00  31 3.00   6 3.00  18 3.00  19 3.00  22 3.00  23 3.00  27 3.00
  25  0.500  0.500  0.000-  41 2.12  52 2.12  57 2.12  59 2.12  60 2.12  63 2.12  12 3.00  20 3.00
                            30 3.00  31 3.00  15 3.00  18 3.00  11 3.00  22 3.00  26 3.00  27 3.00
  26  0.500  0.750  0.250-  42 2.12  51 2.12  58 2.12  59 2.12  60 2.12  64 2.12   3 3.00  27 3.00
                            29 3.00  32 3.00  16 3.00  17 3.00  21 3.00  25 3.00  12 3.00  28 3.00
  27  0.750  0.500  0.250-  43 2.12  50 2.12  57 2.12  58 2.12  59 2.12  61 2.12   2 3.00  26 3.00
                            29 3.00  32 3.00  13 3.00  20 3.00  24 3.00  25 3.00   9 3.00  28 3.00
  28  0.750  0.750  0.000-  44 2.12  49 2.12  57 2.12  58 2.12  60 2.12  62 2.12   9 3.00  17 3.00
                            30 3.00  31 3.00  14 3.00  10 3.00  19 3.00  23 3.00  26 3.00  27 3.00
  29  0.500  0.500  0.500-  45 2.12  56 2.12  59 2.12  61 2.12  63 2.12  64 2.12  16 3.00  24 3.00
                            30 3.00  31 3.00  11 3.00  18 3.00  22 3.00  15 3.00  26 3.00  27 3.00
  30  0.500  0.750  0.750-  46 2.12  55 2.12  60 2.12  62 2.12  63 2.12  64 2.12   7 3.00  31 3.00
                            12 3.00  32 3.00  16 3.00  17 3.00  21 3.00  25 3.00  28 3.00  29 3.00
  31  0.750  0.500  0.750-  47 2.12  54 2.12  57 2.12  61 2.12  62 2.12  63 2.12   6 3.00  30 3.00
                             9 3.00  32 3.00  13 3.00  20 3.00  24 3.00  25 3.00  28 3.00  29 3.00
  32  0.750  0.750  0.500-  48 2.12  53 2.12  58 2.12  61 2.12  62 2.12  64 2.12  13 3.00  21 3.00
                            30 3.00  31 3.00  14 3.00  19 3.00  10 3.00  23 3.00  26 3.00  27 3.00
  33  0.250  0.000  0.000-   1 2.12   3 2.12   4 2.12   7 2.12  12 2.12  17 2.12
  34  0.250  0.250  0.250-   2 2.12   3 2.12   4 2.12   8 2.12  11 2.12  18 2.12
  35  0.000  0.000  0.250-   1 2.12   2 2.12   3 2.12   5 2.12  10 2.12  19 2.12
  36  0.000  0.250  0.000-   1 2.12   2 2.12   4 2.12   6 2.12   9 2.12  20 2.12
  37  0.250  0.000  0.500-   3 2.12   5 2.12   7 2.12   8 2.12  16 2.12  21 2.12
  38  0.250  0.250  0.750-   4 2.12   6 2.12   7 2.12   8 2.12  15 2.12  22 2.12
  39  0.000  0.000  0.750-   1 2.12   5 2.12   6 2.12   7 2.12  14 2.12  23 2.12
  40  0.000  0.250  0.500-   2 2.12   5 2.12   6 2.12   8 2.12  13 2.12  24 2.12
  41  0.250  0.500  0.000-   4 2.12   9 2.12  11 2.12  12 2.12  15 2.12  25 2.12
  42  0.250  0.750  0.250-   3 2.12  10 2.12  11 2.12  12 2.12  16 2.12  26 2.12
  43  0.000  0.500  0.250-   2 2.12   9 2.12  10 2.12  11 2.12  13 2.12  27 2.12
  44  0.000  0.750  0.000-   1 2.12   9 2.12  10 2.12  12 2.12  14 2.12  28 2.12
  45  0.250  0.500  0.500-   8 2.12  11 2.12  13 2.12  15 2.12  16 2.12  29 2.12
  46  0.250  0.750  0.750-   7 2.12  12 2.12  14 2.12  15 2.12  16 2.12  30 2.12
  47  0.000  0.500  0.750-   6 2.12   9 2.12  13 2.12  14 2.12  15 2.12  31 2.12
  48  0.000  0.750  0.500-   5 2.12  10 2.12  13 2.12  14 2.12  16 2.12  32 2.12
  49  0.750  0.000  0.000-   1 2.12  17 2.12  19 2.12  20 2.12  23 2.12  28 2.12
  50  0.750  0.250  0.250-   2 2.12  18 2.12  19 2.12  20 2.12  24 2.12  27 2.12
  51  0.500  0.000  0.250-   3 2.12  17 2.12  18 2.12  19 2.12  21 2.12  26 2.12
  52  0.500  0.250  0.000-   4 2.12  17 2.12  18 2.12  20 2.12  22 2.12  25 2.12
  53  0.750  0.000  0.500-   5 2.12  19 2.12  21 2.12  23 2.12  24 2.12  32 2.12
  54  0.750  0.250  0.750-   6 2.12  20 2.12  22 2.12  23 2.12  24 2.12  31 2.12
  55  0.500  0.000  0.750-   7 2.12  17 2.12  21 2.12  22 2.12  23 2.12  30 2.12
  56  0.500  0.250  0.500-   8 2.12  18 2.12  21 2.12  22 2.12  24 2.12  29 2.12
  57  0.750  0.500  0.000-   9 2.12  20 2.12  25 2.12  27 2.12  28 2.12  31 2.12
  58  0.750  0.750  0.250-  10 2.12  19 2.12  26 2.12  27 2.12  28 2.12  32 2.12
  59  0.500  0.500  0.250-  11 2.12  18 2.12  25 2.12  26 2.12  27 2.12  29 2.12
  60  0.500  0.750  0.000-  12 2.12  17 2.12  25 2.12  26 2.12  28 2.12  30 2.12
  61  0.750  0.500  0.500-  13 2.12  24 2.12  27 2.12  29 2.12  31 2.12  32 2.12
  62  0.750  0.750  0.750-  14 2.12  23 2.12  28 2.12  30 2.12  31 2.12  32 2.12
  63  0.500  0.500  0.750-  15 2.12  22 2.12  25 2.12  29 2.12  30 2.12  31 2.12
  64  0.500  0.750  0.500-  16 2.12  21 2.12  26 2.12  29 2.12  30 2.12  32 2.12

IMPORTANT INFORMATION: All symmetrisations will be switched off!
NOSYMM: (Re-)initialisation of all symmetry stuff for point group C_1.

 KPOINTS: KPOINTS created by Atomic Simulation Env

Automatic generation of k-mesh.
Space group operators:
 irot       det(A)        alpha          n_x          n_y          n_z        tau_x        tau_y        tau_z
    1     1.000000     0.000000     1.000000     0.000000     0.000000     0.000000     0.000000     0.000000

 Subroutine IBZKPT returns following result:

 Found     14 irreducible k-points:

 Following reciprocal coordinates:
            Coordinates               Weight
  0.000000  0.000000  0.000000      1.000000
  0.333333 -0.000000  0.000000      2.000000
  0.000000  0.333333  0.000000      2.000000
  0.333333  0.333333  0.000000      2.000000
 -0.333333  0.333333  0.000000      2.000000
 -0.000000  0.000000  0.333333      2.000000
  0.333333  0.000000  0.333333      2.000000
 -0.333333  0.000000  0.333333      2.000000
 -0.000000  0.333333  0.333333      2.000000
  0.333333  0.333333  0.333333      2.000000
 -0.333333  0.333333  0.333333      2.000000
 -0.000000 -0.333333  0.333333      2.000000
  0.333333 -0.333333  0.333333      2.000000
 -0.333333 -0.333333  0.333333      2.000000

 Following cartesian coordinates:
            Coordinates               Weight
[...]
   0.220E-01 0.205E-01 0.359E-02   -.156E-12 -.391E-13 -.639E-13   0.101E-02 0.110E-02 0.179E-03   -.232E-01 -.220E-01 -.378E-02
   0.352E-01 -.129E-01 -.206E-01   -.208E-12 -.756E-13 -.199E-13   0.134E-02 -.945E-03 -.216E-03   -.367E-01 0.142E-01 0.204E-01
   -.280E-01 0.833E-02 0.250E-01   -.754E-13 -.142E-13 0.153E-13   -.121E-02 0.837E-03 0.762E-03   0.294E-01 -.968E-02 -.255E-01
   -.323E-01 -.203E-01 0.262E-02   -.125E-12 -.699E-13 -.213E-13   -.169E-02 -.855E-03 -.168E-03   0.346E-01 0.214E-01 -.224E-02
   0.291E-01 0.322E-01 -.370E-02   0.213E-13 -.355E-14 -.675E-13   0.111E-02 0.128E-02 -.252E-03   -.303E-01 -.338E-01 0.390E-02
   0.365E-01 -.116E-01 0.210E-01   -.853E-13 -.430E-14 -.509E-13   0.143E-02 -.892E-03 0.267E-03   -.380E-01 0.128E-01 -.207E-01
   -.409E-01 -.114E-01 -.382E-02   -.140E-12 -.105E-12 0.192E-13   -.172E-02 -.821E-03 0.758E-04   0.430E-01 0.126E-01 0.356E-02
   -.373E-01 -.789E-03 0.611E-03   -.149E-12 -.195E-13 -.711E-13   -.117E-02 0.846E-04 0.167E-03   0.384E-01 0.581E-03 -.718E-03
   0.214E-01 -.205E-01 0.487E-02   0.675E-13 -.320E-13 -.746E-13   0.843E-03 -.112E-02 0.221E-03   -.223E-01 0.219E-01 -.509E-02
   0.140E-01 0.128E-01 -.912E-02   -.355E-14 -.525E-13 -.843E-14   0.597E-03 0.874E-03 -.106E-03   -.146E-01 -.140E-01 0.879E-02
   -.322E-01 -.816E-02 0.395E-02   -.143E-12 -.355E-13 0.238E-13   -.169E-02 -.818E-03 0.425E-04   0.344E-01 0.954E-02 -.360E-02
   -.432E-01 0.204E-01 -.651E-03   -.101E-12 -.711E-13 -.320E-13   -.168E-02 0.893E-03 -.160E-03   0.451E-01 -.214E-01 0.833E-03
   0.278E-01 -.322E-01 -.493E-02   0.192E-12 0.391E-13 -.817E-13   0.941E-03 -.129E-02 -.188E-03   -.288E-01 0.337E-01 0.515E-02
   0.149E-01 0.117E-01 0.899E-02   0.568E-13 0.481E-13 -.907E-13   0.599E-03 0.956E-03 0.416E-04   -.156E-01 -.130E-01 -.876E-02
   0.371E-01 0.327E-01 -.318E-01   -.118E-13 0.103E-12 0.660E-14   0.107E-02 0.159E-02 -.830E-03   -.382E-01 -.347E-01 0.324E-01
   0.257E-01 0.203E-03 -.154E-02   -.182E-12 0.582E-14 -.462E-13   0.122E-02 -.312E-03 0.247E-03   -.272E-01 0.287E-03 0.102E-02
   -.220E-01 0.889E-02 -.564E-02   0.103E-12 0.604E-13 -.711E-13   -.105E-02 0.119E-02 0.281E-03   0.232E-01 -.107E-01 0.515E-02
   -.354E-01 -.923E-02 -.276E-01   0.817E-13 0.173E-13 -.412E-13   -.136E-02 -.310E-03 -.769E-03   0.368E-01 0.965E-02 0.282E-01
   0.280E-01 0.296E-01 0.321E-01   0.154E-13 0.568E-13 0.337E-13   0.119E-02 0.161E-02 0.859E-03   -.295E-01 -.319E-01 -.327E-01
   0.326E-01 -.215E-01 0.134E-02   -.224E-13 0.628E-13 -.107E-13   0.177E-02 -.103E-02 -.272E-03   -.349E-01 0.228E-01 -.876E-03
   -.290E-01 0.214E-01 0.540E-02   0.178E-12 0.604E-13 -.533E-13   -.113E-02 0.130E-02 -.281E-03   0.302E-01 -.232E-01 -.495E-02
   -.363E-01 -.742E-02 0.273E-01   0.178E-12 0.651E-13 -.309E-13   -.134E-02 -.363E-03 0.730E-03   0.378E-01 0.786E-02 -.279E-01
   0.410E-01 -.328E-01 -.105E-01   0.164E-12 -.355E-14 0.269E-13   0.172E-02 -.155E-02 -.926E-04   -.430E-01 0.347E-01 0.102E-01
   0.371E-01 -.899E-04 0.156E-02   0.106E-12 0.925E-13 -.568E-13   0.112E-02 0.290E-03 0.191E-03   -.382E-01 -.422E-03 -.182E-02
   -.213E-01 -.919E-02 -.353E-02   0.131E-12 0.675E-13 -.782E-13   -.793E-03 -.117E-02 0.245E-03   0.222E-01 0.110E-01 0.310E-02
   -.139E-01 0.923E-02 -.150E-01   0.181E-12 0.347E-13 0.267E-14   -.574E-03 0.301E-03 -.640E-03   0.146E-01 -.960E-02 0.156E-01
   0.323E-01 -.298E-01 0.103E-01   0.141E-12 0.142E-12 0.159E-13   0.175E-02 -.165E-02 0.744E-04   -.346E-01 0.320E-01 -.100E-01
   0.433E-01 0.214E-01 -.156E-02   0.257E-12 0.568E-13 0.284E-13   0.169E-02 0.998E-03 -.207E-03   -.453E-01 -.227E-01 0.176E-02
   -.281E-01 -.214E-01 0.373E-02   0.192E-12 0.114E-12 -.675E-13   -.970E-03 -.133E-02 -.236E-03   0.291E-01 0.234E-01 -.324E-02
   -.149E-01 0.745E-02 0.151E-01   0.199E-12 0.147E-12 -.729E-13   -.632E-03 0.415E-03 0.667E-03   0.156E-01 -.793E-02 -.156E-01
   0.176E-01 0.184E-01 -.205E-01   0.138E-12 -.888E-15 0.282E-13   0.143E-02 0.128E-02 -.158E-02   -.180E-01 -.190E-01 0.211E-01
   0.235E-01 0.122E-02 0.164E-02   0.799E-13 0.608E-14 0.888E-15   0.292E-02 -.391E-03 0.271E-04   -.251E-01 -.111E-02 -.242E-02
   -.227E-01 0.750E-02 0.531E-02   0.144E-12 0.533E-14 0.151E-13   -.217E-02 0.995E-03 0.666E-03   0.241E-01 -.829E-02 -.493E-02
   -.209E-01 0.106E-02 -.102E-01   0.122E-13 0.390E-13 0.426E-14   -.178E-02 0.316E-03 -.149E-02   0.225E-01 -.769E-03 0.109E-01
   0.789E-02 0.148E-01 0.204E-01   0.163E-12 0.000E+00 -.178E-13   0.562E-03 0.108E-02 0.165E-02   -.907E-02 -.164E-01 -.211E-01
   0.443E-01 -.272E-01 -.185E-02   -.799E-14 0.310E-13 0.133E-13   0.421E-02 -.259E-02 0.115E-03   -.457E-01 0.294E-01 0.250E-02
   -.252E-01 0.672E-02 -.526E-02   0.867E-13 0.213E-13 0.320E-13   -.251E-02 0.134E-02 -.743E-03   0.260E-01 -.752E-02 0.492E-02
   -.121E-01 -.792E-02 0.102E-01   0.229E-13 0.203E-13 0.266E-13   -.153E-02 -.544E-03 0.146E-02   0.134E-01 0.776E-02 -.109E-01
   0.642E-02 -.184E-01 0.781E-02   0.382E-13 -.400E-13 0.285E-13   0.649E-03 -.127E-02 0.538E-03   -.678E-02 0.190E-01 -.926E-02
   0.135E-01 -.134E-02 0.508E-02   0.128E-12 0.498E-14 0.426E-13   0.165E-02 0.496E-03 0.757E-04   -.141E-01 0.116E-02 -.488E-02
   -.221E-01 -.741E-02 -.337E-02   -.455E-13 0.355E-14 0.329E-13   -.247E-02 -.108E-02 -.931E-04   0.232E-01 0.828E-02 0.337E-02
   -.335E-01 -.952E-03 -.108E-01   -.767E-13 -.177E-14 0.283E-13   -.290E-02 -.447E-03 -.116E-02   0.342E-01 0.788E-03 0.116E-01
   0.179E-01 -.148E-01 -.778E-02   0.711E-13 -.142E-13 0.248E-14   0.122E-02 -.106E-02 -.603E-03   -.182E-01 0.164E-01 0.929E-02
   0.718E-02 0.272E-01 -.522E-02   0.782E-13 -.636E-13 0.000E+00   0.177E-02 0.277E-02 0.205E-04   -.796E-02 -.295E-01 0.489E-02
   -.350E-01 -.662E-02 0.351E-02   0.133E-13 0.204E-13 0.497E-13   -.375E-02 -.148E-02 -.634E-04   0.386E-01 0.753E-02 -.335E-02
   -.231E-01 0.792E-02 0.109E-01   -.106E-12 0.151E-13 0.577E-13   -.227E-02 0.495E-03 0.102E-02   0.244E-01 -.773E-02 -.116E-01
   -.175E-01 0.577E-02 -.228E-01   -.373E-13 -.284E-13 0.454E-13   -.148E-02 0.188E-03 -.195E-02   0.180E-01 -.726E-02 0.229E-01
   -.235E-01 0.695E-03 -.680E-02   -.346E-13 -.261E-13 0.453E-13   -.288E-02 -.434E-03 -.343E-03   0.251E-01 0.533E-04 0.639E-02
   0.226E-01 0.174E-01 -.426E-02   -.856E-13 -.426E-13 0.213E-13   0.228E-02 0.227E-02 -.201E-07   -.241E-01 -.192E-01 0.384E-02
   0.209E-01 -.994E-02 -.308E-01   -.934E-14 -.143E-13 0.212E-13   0.174E-02 -.381E-03 -.289E-02   -.225E-01 0.103E-01 0.314E-01
   -.800E-02 0.396E-02 0.228E-01   0.213E-13 -.711E-14 -.606E-14   -.492E-03 0.422E-03 0.193E-02   0.912E-02 -.550E-02 -.228E-01
   -.442E-01 -.172E-01 0.699E-02   -.524E-13 0.221E-13 0.382E-13   -.435E-02 -.184E-02 0.413E-04   0.457E-01 0.172E-01 -.635E-02
   0.250E-01 0.438E-01 0.391E-02   -.144E-12 -.711E-14 0.639E-13   0.265E-02 0.421E-02 0.283E-03   -.260E-01 -.455E-01 -.371E-02
   0.121E-01 0.198E-02 0.307E-01   -.971E-13 -.804E-14 0.284E-13   0.165E-02 0.379E-03 0.294E-02   -.135E-01 -.145E-02 -.315E-01
   -.647E-02 -.578E-02 -.487E-02   -.435E-13 -.400E-13 0.564E-13   -.608E-03 -.231E-03 -.572E-03   0.679E-02 0.730E-02 0.579E-02
   -.135E-01 -.545E-03 -.509E-02   -.128E-12 -.296E-13 0.426E-13   -.171E-02 0.328E-03 -.403E-03   0.142E-01 -.889E-04 0.465E-02
   0.222E-01 -.175E-01 0.788E-02   -.131E-12 0.711E-14 0.639E-13   0.242E-02 -.216E-02 0.524E-03   -.232E-01 0.192E-01 -.796E-02
   0.335E-01 0.994E-02 -.446E-02   -.115E-12 -.214E-13 0.353E-13   0.288E-02 0.421E-03 -.885E-03   -.342E-01 -.103E-01 0.512E-02
   -.178E-01 -.402E-02 0.488E-02   -.924E-13 -.426E-13 0.284E-13   -.127E-02 -.419E-03 0.608E-03   0.181E-01 0.557E-02 -.585E-02
   -.728E-02 0.175E-01 0.512E-02   -.853E-13 -.361E-13 0.284E-13   -.160E-02 0.171E-02 0.385E-03   0.793E-02 -.173E-01 -.464E-02
   0.352E-01 -.438E-01 -.773E-02   -.272E-13 0.213E-13 0.568E-13   0.355E-02 -.409E-02 -.572E-03   -.386E-01 0.456E-01 0.786E-02
   0.231E-01 -.209E-02 0.435E-02   -.136E-12 -.142E-13 0.568E-13   0.225E-02 -.257E-03 0.100E-02   -.244E-01 0.143E-02 -.513E-02
   -.546E-05 -.194E-03 -.278E-03   0.121E-12 0.289E-12 -.792E-14   0.822E-04 0.297E-04 -.310E-04   -.136E-03 0.226E-03 0.270E-03

 POSITION                                       TOTAL-FORCE (eV/Angst)
      0.00000      0.00000      0.00000         0.000001     -0.000290     -0.000299
      0.00000      2.11868      2.11868         0.000323      0.000159     -0.000144
      2.11868      0.00000      2.11868        -0.000181     -0.000365     -0.000010
      2.11868      2.11868      0.00000        -0.000093      0.000320     -0.000434
      0.00000      0.00000      4.23736         0.000245     -0.000507      0.000233
      0.00000      2.11868      6.35604         0.000650      0.000239      0.000213
      2.11868      0.00000      6.35604        -0.000113     -0.000238     -0.000056
      2.11868      2.11868      4.23736        -0.000131      0.000320      0.000554
      0.00000      4.23736      0.00000         0.000333      0.000358     -0.000187
      0.00000      6.35604      2.11868        -0.000044     -0.000125      0.000061
      2.11868      4.23736      2.11868        -0.000051      0.000305     -0.000000
      2.11868      6.35604      0.00000        -0.000021     -0.000361     -0.000438
      0.00000      4.23736      4.23736         0.000552      0.000558      0.000387
      0.00000      6.35604      6.35604         0.000233     -0.000148      0.000023
      2.11868      4.23736      6.35604        -0.000045      0.000201      0.000033
      2.11868      6.35604      4.23736        -0.000106     -0.000313      0.000269
      4.23736      0.00000      0.00000        -0.000069     -0.000394     -0.000293
      4.23736      2.11868      2.11868        -0.000304      0.000178     -0.000263
      6.35604      0.00000      2.11868         0.000100     -0.000649     -0.000214
      6.35604      2.11868      0.00000         0.000081      0.000108     -0.000196
      4.23736      0.00000      4.23736        -0.000288     -0.000648      0.000266
      4.23736      2.11868      6.35604        -0.000535      0.000214      0.000198
      6.35604      0.00000      6.35604         0.000088     -0.000478      0.000179
      6.35604      2.11868      4.23736         0.000135      0.000073      0.000186
      4.23736      4.23736      0.00000        -0.000292      0.000356     -0.000376
      4.23736      6.35604      2.11868        -0.000037     -0.000223     -0.000063
      6.35604      4.23736      2.11868         0.000126      0.000628     -0.000181
      6.35604      6.35604      0.00000         0.000069     -0.000074     -0.000053
      4.23736      4.23736      4.23736        -0.000486      0.000504      0.000287
      4.23736      6.35604      6.35604        -0.000267     -0.000311     -0.000015
      6.35604      4.23736      6.35604         0.000054      0.000616      0.000254
      6.35604      6.35604      4.23736         0.000060     -0.000065      0.000140
      2.11868      0.00000      0.00000         0.000978      0.000643     -0.000952
      2.11868      2.11868      2.11868         0.001317     -0.000285     -0.000752
      0.00000      0.00000      2.11868        -0.000750      0.000202      0.001046
      0.00000      2.11868      0.00000        -0.000189      0.000603     -0.000722
      2.11868      0.00000      4.23736        -0.000625     -0.000488      0.000967
      2.11868      2.11868      6.35604         0.002783     -0.000362      0.000770
      0.00000      0.00000      6.35604        -0.001708      0.000543     -0.001078
      0.00000      2.11868      4.23736        -0.000179     -0.000708      0.000704
      2.11868      4.23736      0.00000         0.000287     -0.000644     -0.000916
      2.11868      6.35604      2.11868         0.001022      0.000313      0.000280
      0.00000      4.23736      2.11868        -0.001408     -0.000218     -0.000093
      0.00000      6.35604      0.00000        -0.002144     -0.000612     -0.000394
      2.11868      4.23736      4.23736         0.000886      0.000475      0.000900
      2.11868      6.35604      6.35604         0.000986      0.000388     -0.000303
      0.00000      4.23736      6.35604        -0.000137     -0.000576      0.000098
      0.00000      6.35604      4.23736        -0.000897      0.000691      0.000376
      6.35604      0.00000      0.00000        -0.000981     -0.001303     -0.001873
      6.35604      2.11868      2.11868        -0.001305      0.000313     -0.000755
      4.23736      0.00000      2.11868         0.000761      0.000494     -0.000428
      4.23736      2.11868      0.00000         0.000197     -0.000050     -0.002237
      6.35604      0.00000      4.23736         0.000628     -0.001116      0.001881
      6.35604      2.11868      6.35604        -0.002811     -0.001921      0.000685
      4.23736      0.00000      6.35604         0.001702      0.002432      0.000480
      4.23736      2.11868      4.23736         0.000237      0.000911      0.002229
      6.35604      4.23736      0.00000        -0.000282      0.001291      0.000351
      6.35604      6.35604      2.11868        -0.001042     -0.000307     -0.000846
      4.23736      4.23736      2.11868         0.001399     -0.000491      0.000448
      4.23736      6.35604      0.00000         0.002153      0.000075     -0.000221
      6.35604      4.23736      4.23736        -0.000898      0.001126     -0.000352
      6.35604      6.35604      6.35604        -0.000946      0.001936      0.000858
      4.23736      4.23736      6.35604         0.000114     -0.002384     -0.000439
      4.23736      6.35604      4.23736         0.000863     -0.000918      0.000230
    total drift:                               -0.000060      0.000062     -0.000039

  FREE ENERGIE OF THE ION-ELECTRON SYSTEM (eV)
  free  energy   TOTEN  =      -230.10767304 eV

  energy  without entropy=     -230.10767304  energy(sigma->0) =     -230.10767304

 writing wavefunctions

 total charge

[...]

 magnetization (x)

# of ion     s       p       d       tot
  1        0.008   0.012  -1.372  -1.352
  2       -0.008  -0.012   1.372   1.352
  3       -0.008  -0.012   1.372   1.352
  4       -0.008  -0.012   1.372   1.352
  5       -0.008  -0.012   1.372   1.352
  6        0.008   0.012  -1.372  -1.351
  7        0.008   0.012  -1.372  -1.352
  8        0.008   0.012  -1.372  -1.352
  9       -0.008  -0.012   1.372   1.352
 10        0.008   0.012  -1.372  -1.352
 11        0.008   0.012  -1.372  -1.352
 12        0.008   0.012  -1.372  -1.352
 13        0.008   0.012  -1.372  -1.352
 14       -0.008  -0.012   1.372   1.352
 15       -0.008  -0.012   1.373   1.352
 16       -0.008  -0.012   1.372   1.352
 17       -0.008  -0.012   1.372   1.352
 18        0.008   0.012  -1.371  -1.351
 19        0.008   0.012  -1.372  -1.352
 20        0.008   0.012  -1.372  -1.351
 21        0.008   0.012  -1.372  -1.352
 22       -0.008  -0.012   1.370   1.350
 23       -0.008  -0.012   1.371   1.351
 24       -0.008  -0.012   1.372   1.352
 25        0.008   0.012  -1.372  -1.352
 26       -0.008  -0.012   1.372   1.352
 27       -0.008  -0.012   1.372   1.352
 28       -0.008  -0.012   1.372   1.351
 29       -0.008  -0.012   1.372   1.351
 30        0.008   0.012  -1.372  -1.351
 31        0.008   0.012  -1.372  -1.352
 32        0.008   0.012  -1.372  -1.352
 33       -0.000  -0.000   0.000  -0.000
 34        0.000  -0.000   0.000  -0.000
 35        0.000  -0.000   0.000  -0.000
 36        0.000  -0.000   0.000  -0.000
 37        0.000  -0.000   0.000  -0.000
 38        0.000   0.000   0.000   0.000
 39       -0.000   0.000   0.000   0.000
 40       -0.000  -0.000   0.000  -0.000
 41       -0.000   0.000   0.000   0.000
 42       -0.000   0.000   0.000   0.000
 43       -0.000   0.000   0.000   0.000
 44       -0.000   0.000   0.000   0.000
 45        0.000  -0.000   0.000  -0.000
 46        0.000  -0.000   0.000  -0.000
 47        0.000  -0.000   0.000  -0.000
 48        0.000  -0.000   0.000   0.000
 49       -0.000   0.000   0.000   0.000
 50        0.000  -0.000   0.000  -0.000
 51        0.000  -0.000   0.000  -0.000
 52        0.000   0.000   0.000   0.000
 53       -0.000   0.000   0.000   0.000
 54       -0.000   0.000   0.000   0.000
 55       -0.000   0.000   0.000   0.000
 56       -0.000   0.000   0.000   0.000
 57        0.000   0.000   0.000   0.000
 58       -0.000   0.000   0.000   0.000
 59       -0.000   0.000   0.000   0.000
 60       -0.000   0.000   0.000   0.000
 61       -0.000  -0.000   0.000  -0.000
 62       -0.000   0.000   0.000   0.000
 63       -0.000   0.000   0.000   0.000
 64        0.000  -0.000   0.000  -0.000
tot       -0.000   0.001  -0.001  -0.000

 BZINTS: Fermi energy:  6.388475;512.000000 electrons
         Band energy: 995.775631;  BLOECHL correction:  0.000000